train/id=306_n=25_m=106.cnf
p cnf 25 106
-14 21 -24 0
-13 -15 22 0
20 21 -23 0
-16 -20 24 0
22 23 25 0
-12 14 -19 0
-8 -11 -23 0
1 8 21 0
-2 4 -5 0
-13 -14 19 0
-13 -20 -22 0
5 10 16 0
-7 -9 -10 0
-8 -15 -22 0
6 -8 -12 0
8 12 22 0
-4 11 -12 0
-11 -13 16 0
10 13 -18 0
12 -18 21 0
-6 21 -25 0
-2 7 24 0
8 -19 20 0
-4 -15 -17 0
4 21 22 0
-11 -21 -25 0
11 20 -21 0
-4 16 -18 0
-4 -17 -25 0
3 7 25 0
-6 -12 23 0
-8 -11 12 0
7 8 -13 0
-3 11 18 0
2 -8 -12 0
5 22 -25 0
-4 20 23 0
4 -6 -21 0
3 -8 -15 0
2 -3 -14 0
-7 14 16 0
1 -23 -24 0
-11 -21 -24 0
-1 3 9 0
-4 12 14 0
-9 -12 -20 0
1 -10 -19 0
2 9 -23 0
3 -9 24 0
3 -9 -21 0
9 -19 22 0
-11 -14 23 0
-4 -16 -19 0
-10 18 -23 0
-9 16 22 0
-2 10 21 0
4 -7 -25 0
9 -20 -21 0
2 16 -21 0
-2 4 -19 0
-2 10 16 0
-9 -15 23 0
2 7 -15 0
12 -16 -17 0
5 18 23 0
-14 -15 -22 0
6 -18 -24 0
-15 17 -25 0
-3 4 11 0
9 10 19 0
-4 19 -24 0
-13 15 -20 0
-18 22 24 0
11 19 -23 0
7 9 -21 0
4 -5 8 0
-3 21 24 0
4 -13 -17 0
-9 -12 17 0
-2 -11 21 0
-8 12 -17 0
-6 10 17 0
-2 11 22 0
-3 -11 -19 0
-1 16 -22 0
-5 14 21 0
1 -6 17 0
-3 -20 -24 0
1 10 23 0
-1 -11 -15 0
17 -22 24 0
1 -8 25 0
-15 21 24 0
15 16 -18 0
-4 9 22 0
1 9 -10 0
5 15 -25 0
-2 15 18 0
-7 -14 22 0
2 15 -17 0
1 -2 -6 0
-2 -3 7 0
8 -9 -12 0
-5 -8 9 0
-14 -15 -19 0
-21 -22 -25 0
