train/id=306_n=25_m=106.wcnf
p wcnf 25 106 1000
1000 -14 21 -24 0
1000 -13 -15 22 0
1000 20 21 -23 0
1000 -16 -20 24 0
1000 22 23 25 0
1000 -12 14 -19 0
1000 -8 -11 -23 0
1000 1 8 21 0
1000 -2 4 -5 0
1000 -13 -14 19 0
50 -13 -20 -22 0
1000 5 10 16 0
1000 -7 -9 -10 0
1000 -8 -15 -22 0
1000 6 -8 -12 0
1000 8 12 22 0
1000 -4 11 -12 0
1000 -11 -13 16 0
1000 10 13 -18 0
1000 12 -18 21 0
1000 -6 21 -25 0
50 -2 7 24 0
1000 8 -19 20 0
74 -4 -15 -17 0
1000 4 21 22 0
1000 -11 -21 -25 0
1000 11 20 -21 0
1000 -4 16 -18 0
1000 -4 -17 -25 0
48 3 7 25 0
1000 -6 -12 23 0
1000 -8 -11 12 0
81 7 8 -13 0
1000 -3 11 18 0
1000 2 -8 -12 0
1000 5 22 -25 0
1000 -4 20 23 0
1000 4 -6 -21 0
1000 3 -8 -15 0
94 2 -3 -14 0
1000 -7 14 16 0
1000 1 -23 -24 0
1000 -11 -21 -24 0
36 -1 3 9 0
1000 -4 12 14 0
1000 -9 -12 -20 0
100 1 -10 -19 0
1000 2 9 -23 0
1000 3 -9 24 0
1000 3 -9 -21 0
1000 9 -19 22 0
1000 -11 -14 23 0
1000 -4 -16 -19 0
1000 -10 18 -23 0
1000 -9 16 22 0
1000 -2 10 21 0
60 4 -7 -25 0
1000 9 -20 -21 0
1000 2 16 -21 0
1000 -2 4 -19 0
1000 -2 10 16 0
1000 -9 -15 23 0
29 2 7 -15 0
1000 12 -16 -17 0
88 5 18 23 0
60 -14 -15 -22 0
1000 6 -18 -24 0
1000 -15 17 -25 0
59 -3 4 11 0
68 9 10 19 0
1000 -4 19 -24 0
1000 -13 15 -20 0
1000 -18 22 24 0
1000 11 19 -23 0
1000 7 9 -21 0
1000 4 -5 8 0
22 -3 21 24 0
1000 4 -13 -17 0
1000 -9 -12 17 0
1000 -2 -11 21 0
1000 -8 12 -17 0
1000 -6 10 17 0
1000 -2 11 22 0
1000 -3 -11 -19 0
1000 -1 16 -22 0
1000 -5 14 21 0
1000 1 -6 17 0
1000 -3 -20 -24 0
1000 1 10 23 0
1000 -1 -11 -15 0
1000 17 -22 24 0
44 1 -8 25 0
1000 -15 21 24 0
1000 15 16 -18 0
1000 -4 9 22 0
41 1 9 -10 0
1000 5 15 -25 0
62 -2 15 18 0
91 -7 -14 22 0
1000 2 15 -17 0
1000 1 -2 -6 0
1000 -2 -3 7 0
1000 8 -9 -12 0
2 -5 -8 9 0
1000 -14 -15 -19 0
1000 -21 -22 -25 0
